34 24
5 941
22 26
9 50
13 352
20 621
6 729
7 957
3 579
6 186
9 825
10 553
16 949
10 43
22 127
6 528
3 603
7 700
9 396
14 291
6 628
8 95
22 126
17 920
23 927
3 550
5 834
7 623
5 858
3 144
4 930
17 619
12 923
12 224
13 270
